data;
param rawBarWidth := 1200;
param: ORDERS: widths barsNum storageCost :=
1 200 20 1
2 250 38 1
3 300 35 1
4 375 24 1
;

param stageNum := 3;
param plan: 1 2 3 4 :=
    1 10 10 10 10
    2  5  5  5  5
    3  5 23 20  9
;

param buildDuration: 1 :=
	1 50
	2 25
	3 100